/*
tuple OilTable_tuple {
	string name;
	float capacity;
	float price;
	float octane;
	float lead;
}
{OilTable_tuple} OilTable  = ...;
*/
OilTable = {<"Crude1" 5000 45 12 0.5> <"Crude2" 5000 35 6 2> <"Crude3" 5000
             25 8 3>};
/*
tuple GasTable_tuple {
	string name;
	float demand;
	float price;
	float octane;
	float lead;
}
{GasTable_tuple} GasTable  = ...;
*/
GasTable = {<"Super" 3000 70 10 1> <"Regular" 2000 60 8 2> <"Diesel" 1000 50
             6 1>};
